CPXPARAM_TimeLimit                               1800
CPXPARAM_Read_DataCheck                          1
CPXPARAM_MIP_Strategy_HeuristicFreq              -1
Parallel mode: deterministic, using up to 8 threads for concurrent optimization.
Tried aggregator 1 time.
LP Presolve eliminated 123 rows and 20475 columns.
Reduced LP has 9987 rows, 1801 columns, and 29199 nonzeros.
Presolve time = 0.00 sec. (8.40 ticks)

Iteration log . . .
Iteration:     1   Dual objective     =           942.000000
Perturbation started.
Iteration:   199   Dual objective     =           942.000000
Initializing dual steep norms . . .
Iteration:   200   Dual objective     =           942.000003
Iteration:   474   Dual objective     =           942.012522
Iteration:   722   Dual objective     =           942.013686
Iteration:  1001   Dual objective     =           942.014198
Iteration:  1209   Dual objective     =           942.014384
Iteration:  1389   Dual objective     =           942.015141
Iteration:  1588   Dual objective     =           942.015208
Iteration:  1796   Dual objective     =           942.015460
Iteration:  2014   Dual objective     =           942.015477
Iteration:  2236   Dual objective     =           942.015969
Iteration:  2424   Dual objective     =           942.016224
Iteration:  2721   Dual objective     =           942.016351
Removing perturbation.

Dual simplex solved model.

